
Gurobi 10.0.0 (linux64) logging started Thu Nov 17 19:12:58 2022

Set parameter LogFile to value "../results/k03_n150_d015/k03_n160_d020_i160-043_A-MILO_log.txt"
Gurobi Optimizer version 10.0.0 build v10.0.0rc2 (linux64)

CPU model: Intel(R) Xeon(R) CPU E5-2630 v4 @ 2.20GHz, instruction set [SSE2|AVX|AVX2]
Thread count: 20 physical cores, 40 logical processors, using up to 10 threads

Optimize a model with 23056 rows, 3024 columns and 69168 nonzeros
Model fingerprint: 0x1ed6aa51
Coefficient statistics:
  Matrix range     [1e+00, 1e+00]
  Objective range  [8e+01, 3e+02]
  Bounds range     [1e+00, 1e+00]
  RHS range        [1e+00, 2e+00]
Presolve removed 288 rows and 44 columns
Presolve time: 0.07s
Presolved: 2980 rows, 25830 columns, 71366 nonzeros

Concurrent LP optimizer: primal simplex, dual simplex, and barrier
Showing barrier log only...

Ordering time: 0.00s

Barrier statistics:
 Free vars  : 159
 AA' NZ     : 2.300e+04
 Factor NZ  : 1.033e+05 (roughly 12 MB of memory)
 Factor Ops : 2.105e+07 (less than 1 second per iteration)
 Threads    : 8

                  Objective                Residual
Iter       Primal          Dual         Primal    Dual     Compl     Time
   0   2.85588615e+06  8.31100000e+03  3.43e+02 1.00e+00  1.84e+02     0s
   1   8.28411297e+05  1.57497696e+05  0.00e+00 2.91e-03  2.34e+01     0s
   2   3.35118318e+05  2.31349734e+05  0.00e+00 3.52e-04  3.62e+00     0s
   3   2.90057732e+05  2.75085501e+05  0.00e+00 1.24e-05  5.23e-01     0s
   4   2.80643996e+05  2.76313600e+05  0.00e+00 5.94e-06  1.51e-01     0s
   5   2.78186728e+05  2.76857511e+05  0.00e+00 2.08e-06  4.64e-02     0s
   6   2.77235132e+05  2.77116820e+05  0.00e+00 2.99e-07  4.13e-03     0s
   7   2.77164015e+05  2.77163986e+05  0.00e+00 1.37e-08  1.01e-06     0s
   8   2.77164000e+05  2.77164000e+05  0.00e+00 3.28e-10  1.01e-09     0s

Barrier solved model in 8 iterations and 0.19 seconds (0.13 work units)
Optimal objective 2.77164000e+05

Crossover log...

      20 DPushes remaining with DInf 0.0000000e+00                 0s
       0 DPushes remaining with DInf 0.0000000e+00                 0s

     296 PPushes remaining with PInf 3.4511812e-06                 0s
       0 PPushes remaining with PInf 0.0000000e+00                 0s

  Push phase complete: Pinf 0.0000000e+00, Dinf 0.0000000e+00      0s


Solved with barrier
Extra simplex iterations after uncrush: 2
Iteration    Objective       Primal Inf.    Dual Inf.      Time
     321    2.7716400e+05   0.000000e+00   0.000000e+00      0s

Solved in 321 iterations and 0.21 seconds (0.14 work units)
Optimal objective  2.771640000e+05
